31 31.0
19
3 3 10 6
3 4 7 27
3 5 0 0
3 6 10 0
3 7 0 13
3 8 0 5
3 9 25 12
3 10 25 21
3 11 0 20
3 12 25 0
3 13 3 0
3 14 7 13
3 22 10 9
3 31 28 0
4 3 3 28
4 7 3 13
4 8 3 20
4 13 6 0
12 31 13 0
